\ Model mip_model
\ LP format - for model browsing. Use MPS format to capture full model detail.
Minimize
  w[0,0,0] + 2 w[0,0,1] + 3 w[0,0,2] + 4 w[0,0,3] + 5 w[0,0,4] + 6 w[0,0,5]
   + 7 w[0,0,6] + 8 w[0,0,7] + 9 w[0,0,8] + 10 w[0,0,9] + w[0,1,0]
   + 2 w[0,1,1] + 3 w[0,1,2] + 4 w[0,1,3] + 5 w[0,1,4] + 6 w[0,1,5]
   + 7 w[0,1,6] + 8 w[0,1,7] + 9 w[0,1,8] + 10 w[0,1,9] + w[1,0,0]
   + 2 w[1,0,1] + 3 w[1,0,2] + 4 w[1,0,3] + 5 w[1,0,4] + 6 w[1,0,5]
   + 7 w[1,0,6] + 8 w[1,0,7] + 9 w[1,0,8] + 10 w[1,0,9] + w[1,1,0]
   + 2 w[1,1,1] + 3 w[1,1,2] + 4 w[1,1,3] + 5 w[1,1,4] + 6 w[1,1,5]
   + 7 w[1,1,6] + 8 w[1,1,7] + 9 w[1,1,8] + 10 w[1,1,9]
Subject To
 R0: w[0,0,0] = 2
 R1: w[0,1,0] = 2
 R2: w[1,0,0] - c[0,0,0] - c[0,0,1] - c[0,0,2] - c[0,0,3] - c[0,0,4]
   - c[0,0,5] - c[0,0,6] - c[0,0,7] - c[0,0,8] - c[0,0,9] = 2
 R3: w[1,1,0] - c[0,0,0] - c[0,0,1] - c[0,0,2] - c[0,0,3] - c[0,0,4]
   - c[0,0,5] - c[0,0,6] - c[0,0,7] - c[0,0,8] - c[0,0,9] = 2
 R4: - w[0,0,0] + w[0,1,1] + c[0,0,0] = 0
 R5: - w[0,0,1] + w[0,1,2] + c[0,0,1] = 0
 R6: - w[0,0,2] + w[0,1,3] + c[0,0,2] = 0
 R7: - w[0,0,3] + w[0,1,4] + c[0,0,3] = 0
 R8: - w[0,0,4] + w[0,1,5] + c[0,0,4] = 0
 R9: - w[0,0,5] + w[0,1,6] + c[0,0,5] = 0
 R10: - w[0,0,6] + w[0,1,7] + c[0,0,6] = 0
 R11: - w[0,0,7] + w[0,1,8] + c[0,0,7] = 0
 R12: - w[0,0,8] + w[0,1,9] + c[0,0,8] = 0
 R13: - w[1,0,0] + w[1,1,1] + c[1,0,0] = 0
 R14: - w[1,0,1] + w[1,1,2] + c[1,0,1] = 0
 R15: - w[1,0,2] + w[1,1,3] + c[1,0,2] = 0
 R16: - w[1,0,3] + w[1,1,4] + c[1,0,3] = 0
 R17: - w[1,0,4] + w[1,1,5] + c[1,0,4] = 0
 R18: - w[1,0,5] + w[1,1,6] + c[1,0,5] = 0
 R19: - w[1,0,6] + w[1,1,7] + c[1,0,6] = 0
 R20: - w[1,0,7] + w[1,1,8] + c[1,0,7] = 0
 R21: - w[1,0,8] + w[1,1,9] + c[1,0,8] = 0
 R22: - w[0,0,0] + c[0,0,0] <= 0
 R23: - w[0,0,1] + c[0,0,1] <= 0
 R24: - w[0,0,2] + c[0,0,2] <= 0
 R25: - w[0,0,3] + c[0,0,3] <= 0
 R26: - w[0,0,4] + c[0,0,4] <= 0
 R27: - w[0,0,5] + c[0,0,5] <= 0
 R28: - w[0,0,6] + c[0,0,6] <= 0
 R29: - w[0,0,7] + c[0,0,7] <= 0
 R30: - w[0,0,8] + c[0,0,8] <= 0
 R31: - w[0,0,9] + c[0,0,9] <= 0
 R32: - w[0,1,0] + c[0,1,0] <= 0
 R33: - w[0,1,1] + c[0,1,1] <= 0
 R34: - w[0,1,2] + c[0,1,2] <= 0
 R35: - w[0,1,3] + c[0,1,3] <= 0
 R36: - w[0,1,4] + c[0,1,4] <= 0
 R37: - w[0,1,5] + c[0,1,5] <= 0
 R38: - w[0,1,6] + c[0,1,6] <= 0
 R39: - w[0,1,7] + c[0,1,7] <= 0
 R40: - w[0,1,8] + c[0,1,8] <= 0
 R41: - w[0,1,9] + c[0,1,9] <= 0
 R42: - w[1,0,0] + c[1,0,0] <= 0
 R43: - w[1,0,1] + c[1,0,1] <= 0
 R44: - w[1,0,2] + c[1,0,2] <= 0
 R45: - w[1,0,3] + c[1,0,3] <= 0
 R46: - w[1,0,4] + c[1,0,4] <= 0
 R47: - w[1,0,5] + c[1,0,5] <= 0
 R48: - w[1,0,6] + c[1,0,6] <= 0
 R49: - w[1,0,7] + c[1,0,7] <= 0
 R50: - w[1,0,8] + c[1,0,8] <= 0
 R51: - w[1,0,9] + c[1,0,9] <= 0
 R52: - w[1,1,0] + c[1,1,0] <= 0
 R53: - w[1,1,1] + c[1,1,1] <= 0
 R54: - w[1,1,2] + c[1,1,2] <= 0
 R55: - w[1,1,3] + c[1,1,3] <= 0
 R56: - w[1,1,4] + c[1,1,4] <= 0
 R57: - w[1,1,5] + c[1,1,5] <= 0
 R58: - w[1,1,6] + c[1,1,6] <= 0
 R59: - w[1,1,7] + c[1,1,7] <= 0
 R60: - w[1,1,8] + c[1,1,8] <= 0
 R61: - w[1,1,9] + c[1,1,9] <= 0
 R62: c[0,0,0] <= 2
 R63: c[0,0,1] <= 2
 R64: c[0,0,2] <= 2
 R65: c[0,0,3] <= 2
 R66: c[0,0,4] <= 2
 R67: c[0,0,5] <= 2
 R68: c[0,0,6] <= 2
 R69: c[0,0,7] <= 2
 R70: c[0,0,8] <= 2
 R71: c[0,0,9] <= 2
 R72: c[0,1,0] <= 2
 R73: c[0,1,1] <= 2
 R74: c[0,1,2] <= 2
 R75: c[0,1,3] <= 2
 R76: c[0,1,4] <= 2
 R77: c[0,1,5] <= 2
 R78: c[0,1,6] <= 2
 R79: c[0,1,7] <= 2
 R80: c[0,1,8] <= 2
 R81: c[0,1,9] <= 2
 R82: c[1,0,0] <= 2
 R83: c[1,0,1] <= 2
 R84: c[1,0,2] <= 2
 R85: c[1,0,3] <= 2
 R86: c[1,0,4] <= 2
 R87: c[1,0,5] <= 2
 R88: c[1,0,6] <= 2
 R89: c[1,0,7] <= 2
 R90: c[1,0,8] <= 2
 R91: c[1,0,9] <= 2
 R92: c[1,1,0] <= 2
 R93: c[1,1,1] <= 2
 R94: c[1,1,2] <= 2
 R95: c[1,1,3] <= 2
 R96: c[1,1,4] <= 2
 R97: c[1,1,5] <= 2
 R98: c[1,1,6] <= 2
 R99: c[1,1,7] <= 2
 R100: c[1,1,8] <= 2
 R101: c[1,1,9] <= 2
 R102: w[0,0,1] = 0
 R103: w[0,0,2] = 0
 R104: w[0,0,3] = 0
 R105: w[0,0,4] = 0
 R106: w[0,0,5] = 0
 R107: w[0,0,6] = 0
 R108: w[0,0,7] = 0
 R109: w[0,0,8] = 0
 R110: w[0,0,9] = 0
 R111: w[1,0,1] = 0
 R112: w[1,0,2] = 0
 R113: w[1,0,3] = 0
 R114: w[1,0,4] = 0
 R115: w[1,0,5] = 0
 R116: w[1,0,6] = 0
 R117: w[1,0,7] = 0
 R118: w[1,0,8] = 0
 R119: w[1,0,9] = 0
Bounds
Generals
 c[0,0,0] c[0,0,1] c[0,0,2] c[0,0,3] c[0,0,4] c[0,0,5] c[0,0,6] c[0,0,7]
 c[0,0,8] c[0,0,9] c[0,1,0] c[0,1,1] c[0,1,2] c[0,1,3] c[0,1,4] c[0,1,5]
 c[0,1,6] c[0,1,7] c[0,1,8] c[0,1,9] c[1,0,0] c[1,0,1] c[1,0,2] c[1,0,3]
 c[1,0,4] c[1,0,5] c[1,0,6] c[1,0,7] c[1,0,8] c[1,0,9] c[1,1,0] c[1,1,1]
 c[1,1,2] c[1,1,3] c[1,1,4] c[1,1,5] c[1,1,6] c[1,1,7] c[1,1,8] c[1,1,9]
End
